100
100
98
97
97
97
96
96
95
92
91
90
89
89
88
88
87
87
87
86
86
86
85
85
83
83
83
82
81
80
79
78
78
78
78
75
71
70
70
70
70
69
68
67
65
65
64
64
63
61
61
61
61
60
60
60
60
59
57
57
54
54
54
54
53
53
53
52
51
50
50
50
49
46
46
46
46
46
45
44
44
44
42
42
41
40
40
39
39
38
38
38
37
36
35
35
34
34
34
34
32
32
